
Gurobi 9.5.0 (linux64) logging started Wed Oct 11 14:59:24 2023

Set parameter LogFile to value "/lustre1/scratch/348/vsc34888/JointResearch/05.Models/06.Benchmarking/A.The_full_year_MILP/9n/openStarNet_9n.log"
Set parameter Method to value 2
Set parameter MIPFocus to value 1
Set parameter Presolve to value 2
Set parameter RINS to value 100
Set parameter MIPGap to value 0.01
Set parameter Threads to value 36
Set parameter TimeLimit to value 604800
Set parameter IterationLimit to value 760000000
Gurobi Optimizer version 9.5.0 build v9.5.0rc5 (linux64)
Thread count: 36 physical cores, 36 logical processors, using up to 36 threads
Optimize a model with 2407680 rows, 1249894 columns and 7292341 nonzeros
Model fingerprint: 0x94a2678d
Variable types: 1249858 continuous, 36 integer (36 binary)
Coefficient statistics:
  Matrix range     [7e-04, 2e+03]
  Objective range  [1e+00, 1e+00]
  Bounds range     [4e-04, 2e+00]
  RHS range        [4e-04, 1e+00]
Presolve removed 861408 rows and 415267 columns (presolve time = 5s) ...
Presolve removed 861408 rows and 415267 columns (presolve time = 10s) ...
Presolve removed 861408 rows and 415267 columns (presolve time = 15s) ...
Presolve removed 861408 rows and 415267 columns
Presolve time: 16.32s
Presolved: 1546272 rows, 834627 columns, 5473407 nonzeros
Variable types: 834591 continuous, 36 integer (36 binary)
Root relaxation presolved: 1546272 rows, 834627 columns, 5473407 nonzeros

Root barrier log...

Ordering time: 0.48s

Barrier statistics:
 Dense cols : 36
 AA' NZ     : 2.081e+07
 Factor NZ  : 4.702e+07 (roughly 1.3 GB of memory)
 Factor Ops : 2.386e+09 (less than 1 second per iteration)
 Threads    : 35

                  Objective                Residual
Iter       Primal          Dual         Primal    Dual     Compl     Time
   0   3.92244967e+05 -1.99805199e+07  6.62e+00 5.96e-01  2.05e+01    33s
   1   6.05531166e+04 -5.88923687e+06  7.75e-01 1.07e-08  2.74e+00    34s
   2   1.34112631e+04 -9.30049168e+05  9.43e-03 5.58e-09  3.14e-01    35s
   3   3.19777772e+03 -2.20105542e+04  1.05e-05 9.66e-11  8.32e-03    36s
   4   9.19007020e+02 -3.60507698e+03  6.78e-09 1.55e-11  1.49e-03    37s
   5   6.36131670e+02 -1.65818997e+03  3.08e-09 7.95e-12  7.57e-04    38s
   6   4.54476994e+02 -9.82481675e+02  1.75e-09 3.74e-12  4.74e-04    39s
   7   3.14674533e+02 -5.07322657e+02  9.21e-10 2.66e-12  2.71e-04    40s
   8   1.80630692e+02 -1.89127695e+02  2.89e-10 1.91e-12  1.22e-04    41s
   9   1.54639879e+02 -4.23222170e+01  1.98e-10 1.02e-12  6.50e-05    42s
  10   1.44418513e+02 -2.15814160e+01  1.66e-10 1.26e-12  5.48e-05    43s
  11   1.23844144e+02  4.09556609e+00  9.46e-11 1.22e-12  3.95e-05    44s
  12   1.11482869e+02  4.08191177e+01  5.68e-11 8.24e-13  2.33e-05    45s
  13   1.05386262e+02  5.17311878e+01  4.56e-11 1.48e-12  1.77e-05    46s
  14   1.02693665e+02  6.07818555e+01  4.43e-11 1.80e-12  1.38e-05    47s
  15   1.01191142e+02  6.38224491e+01  3.80e-11 9.09e-13  1.23e-05    48s
  16   1.00655781e+02  6.49991230e+01  3.56e-11 9.59e-13  1.18e-05    49s
  17   9.93163309e+01  7.01222623e+01  3.00e-11 4.05e-13  9.63e-06    50s
  18   9.85085046e+01  7.31465027e+01  2.65e-11 7.39e-13  8.37e-06    51s
  19   9.71936946e+01  7.45975382e+01  2.11e-11 1.14e-12  7.45e-06    53s
  20   9.68605760e+01  7.54229566e+01  1.97e-11 1.11e-12  7.07e-06    54s
  21   9.60722425e+01  7.89461718e+01  2.58e-11 6.68e-13  5.65e-06    55s
  22   9.53970825e+01  7.99022351e+01  2.81e-11 7.60e-13  5.11e-06    56s
  23   9.50808857e+01  8.09096084e+01  2.78e-11 5.97e-13  4.67e-06    57s
  24   9.45979949e+01  8.28456141e+01  3.61e-11 7.32e-13  3.88e-06    58s
  25   9.41978074e+01  8.35033469e+01  5.87e-11 6.39e-13  3.53e-06    60s
  26   9.40717832e+01  8.38647876e+01  6.80e-11 7.89e-13  3.37e-06    61s
  27   9.38588795e+01  8.55935909e+01  7.69e-11 4.05e-13  2.73e-06    62s
  28   9.35396855e+01  8.60583662e+01  7.00e-11 3.69e-13  2.47e-06    63s
  29   9.33810081e+01  8.64357907e+01  6.08e-11 2.27e-13  2.29e-06    64s
  30   9.31913094e+01  8.69313107e+01  5.45e-11 2.77e-13  2.06e-06    65s
  31   9.30518586e+01  8.72808580e+01  4.87e-11 7.25e-13  1.90e-06    66s
  32   9.30152570e+01  8.74448943e+01  8.06e-11 7.18e-13  1.84e-06    67s
  33   9.28886285e+01  8.77807314e+01  6.42e-11 4.97e-13  1.68e-06    68s
  34   9.27750022e+01  8.81883331e+01  8.19e-11 2.13e-13  1.51e-06    70s
  35   9.26888011e+01  8.84275489e+01  7.36e-11 5.97e-13  1.41e-06    71s
  36   9.26016494e+01  8.87141315e+01  2.09e-10 9.02e-13  1.28e-06    72s
  37   9.24966777e+01  8.89305375e+01  1.23e-10 6.32e-13  1.18e-06    73s
  38   9.24515987e+01  8.91079243e+01  1.08e-10 3.84e-13  1.10e-06    74s
  39   9.24257546e+01  8.92202189e+01  1.04e-10 2.34e-13  1.06e-06    75s
  40   9.23722749e+01  8.94208430e+01  9.99e-11 5.76e-13  9.73e-07    76s
  41   9.23237620e+01  8.95503423e+01  1.17e-10 3.55e-13  9.15e-07    78s
  42   9.23059260e+01  8.96603421e+01  1.19e-10 5.19e-13  8.73e-07    79s
  43   9.22587174e+01  8.98936437e+01  1.13e-10 4.55e-13  7.80e-07    80s
  44   9.22227204e+01  9.00126520e+01  1.36e-10 3.84e-13  7.29e-07    81s
  45   9.21723300e+01  9.04321024e+01  7.12e-10 2.91e-13  5.74e-07    82s
  46   9.21431827e+01  9.05696822e+01  6.23e-10 2.38e-13  5.19e-07    84s
  47   9.21011678e+01  9.07192458e+01  5.24e-10 3.45e-13  4.56e-07    85s
  48   9.20342045e+01  9.11934924e+01  3.71e-10 9.31e-13  2.77e-07    86s
  49   9.20171977e+01  9.12354687e+01  3.36e-10 1.21e-12  2.58e-07    87s
  50   9.20030674e+01  9.13416781e+01  3.03e-10 1.78e-12  2.18e-07    89s
  51   9.19902275e+01  9.14356752e+01  8.06e-10 3.20e-13  1.83e-07    90s
  52   9.19795522e+01  9.14990472e+01  1.28e-09 6.32e-13  1.58e-07    91s
  53   9.19581826e+01  9.16903701e+01  1.96e-09 5.31e-12  8.83e-08    93s
  54   9.19457339e+01  9.17362439e+01  1.63e-09 4.13e-12  6.91e-08    94s
  55   9.19412010e+01  9.17441042e+01  1.45e-09 3.81e-12  6.50e-08    96s
  56   9.19371994e+01  9.17499786e+01  1.28e-09 4.03e-12  6.18e-08    97s
  57   9.19332935e+01  9.17868282e+01  1.13e-09 2.71e-12  4.83e-08    99s
  58   9.19267687e+01  9.17963429e+01  8.71e-10 2.56e-12  4.30e-08   101s
  59   9.19206450e+01  9.18673570e+01  4.56e-10 4.26e-13  1.76e-08   102s
  60   9.19142017e+01  9.18853743e+01  3.32e-10 5.33e-13  9.51e-09   104s
  61   9.19127577e+01  9.18902851e+01  2.79e-10 3.69e-13  7.41e-09   105s
  62   9.19119979e+01  9.18908570e+01  2.51e-10 2.17e-13  6.97e-09   106s
  63   9.19077637e+01  9.19026324e+01  8.99e-11 3.20e-13  1.69e-09   107s
  64   9.19053879e+01  9.19051378e+01  1.46e-11 4.62e-13  8.25e-11   108s
  65   9.19052002e+01  9.19051973e+01  9.64e-10 1.12e-11  9.72e-13   109s
  66   9.19051987e+01  9.19051983e+01  2.08e-08 9.73e-12  1.23e-13   110s

Barrier solved model in 66 iterations and 109.78 seconds (77.90 work units)
Optimal objective 9.19051987e+01


Root crossover log...

  364168 DPushes remaining with DInf 0.0000000e+00               111s
       0 DPushes remaining with DInf 0.0000000e+00               112s

   61586 PPushes remaining with PInf 0.0000000e+00               112s
       4 PPushes remaining with PInf 0.0000000e+00               115s
       0 PPushes remaining with PInf 0.0000000e+00               116s

  Push phase complete: Pinf 0.0000000e+00, Dinf 1.3833201e-11    116s


Root simplex log...

Iteration    Objective       Primal Inf.    Dual Inf.      Time
   70039    9.1905198e+01   0.000000e+00   0.000000e+00    117s
   70039    9.1905198e+01   0.000000e+00   0.000000e+00    118s

Root relaxation: objective 9.190520e+01, 70039 iterations, 93.00 seconds (69.91 work units)

    Nodes    |    Current Node    |     Objective Bounds      |     Work
 Expl Unexpl |  Obj  Depth IntInf | Incumbent    BestBd   Gap | It/Node Time

     0     0   91.90520    0    6          -   91.90520      -     -  118s
H    0     0                     922.9305402   91.90520  90.0%     -  129s
     0     0   99.36201    0    1  922.93054   99.36201  89.2%     -  329s
H    0     0                     101.6172119   99.36201  2.22%     -  340s
     0     0   99.95832    0    3  101.61721   99.95832  1.63%     -  458s
     0     0   99.95832    0    3  101.61721   99.95832  1.63%     -  477s
     0     0   99.95832    0    1  101.61721   99.95832  1.63%     -  554s
H    0     0                     100.1621254   99.95832  0.20%     -  559s

Cutting planes:
  Gomory: 1
  MIR: 7146
  Relax-and-lift: 55

Explored 1 nodes (241822 simplex iterations) in 559.74 seconds (562.73 work units)
Thread count was 36 (of 36 available processors)

Solution count 4: 100.162 101.617 922.931 933.956 

Optimal solution found (tolerance 1.00e-02)
Best objective 1.001621254218e+02, best bound 9.995831848988e+01, gap 0.2035%

Gurobi 9.5.0 (linux64) logging started Wed Oct 11 15:09:59 2023

Set parameter LogFile to value "/lustre1/scratch/348/vsc34888/JointResearch/05.Models/06.Benchmarking/A.The_full_year_MILP/9n/openStarNet_9n.log"
Set parameter Method to value 2
Set parameter MIPFocus to value 1
Set parameter Presolve to value 2
Set parameter RINS to value 100
Set parameter MIPGap to value 0.01
Set parameter Threads to value 36
Set parameter TimeLimit to value 604800
Set parameter IterationLimit to value 760000000
No parameters matching 'relax_integrality' found
Gurobi Optimizer version 9.5.0 build v9.5.0rc5 (linux64)
Thread count: 36 physical cores, 36 logical processors, using up to 36 threads
Optimize a model with 2407680 rows, 1249858 columns and 6034321 nonzeros
Model fingerprint: 0xd3e9c770
Coefficient statistics:
  Matrix range     [7e-04, 2e+03]
  Objective range  [1e+00, 1e+00]
  Bounds range     [4e-04, 2e+00]
  RHS range        [4e-04, 2e+01]
Presolve removed 2093184 rows and 703555 columns
Presolve time: 2.64s
Presolved: 314496 rows, 546303 columns, 1201503 nonzeros

Ordering time: 0.04s

Barrier statistics:
 AA' NZ     : 8.823e+05
 Factor NZ  : 3.232e+06 (roughly 400 MB of memory)
 Factor Ops : 3.982e+07 (less than 1 second per iteration)
 Threads    : 36

                  Objective                Residual
Iter       Primal          Dual         Primal    Dual     Compl     Time
   0   4.30000780e+05 -5.59490768e+06  4.33e+00 1.78e-15  1.15e+01     3s
   1   6.12360932e+04 -1.14176963e+06  5.09e-01 1.07e-14  1.44e+00     3s
   2   8.97864264e+03 -1.79071633e+05  3.35e-02 1.10e-14  1.67e-01     3s
   3   1.46897475e+03 -3.72323107e+03  1.09e-05 8.88e-15  4.34e-03     4s
   4   6.76702141e+02 -8.31577124e+02  1.11e-08 5.33e-15  1.26e-03     4s
   5   4.47721885e+02 -3.47345410e+02  6.22e-09 5.33e-15  6.64e-04     4s
   6   3.03237791e+02 -1.64634007e+02  3.46e-09 5.33e-15  3.91e-04     4s
   7   2.15109578e+02 -5.18128334e+01  1.88e-09 3.55e-15  2.23e-04     4s
   8   1.64088567e+02  1.58689412e+01  1.01e-09 3.55e-15  1.24e-04     4s
   9   1.23753171e+02  7.03355842e+01  3.45e-10 3.55e-15  4.46e-05     4s
  10   1.10922558e+02  8.74068578e+01  1.53e-10 3.55e-15  1.96e-05     5s
  11   1.02797464e+02  9.55177177e+01  3.48e-11 3.55e-15  6.08e-06     5s
  12   1.00799874e+02  9.94296648e+01  1.09e-11 5.33e-15  1.14e-06     5s
  13   1.00337391e+02  9.99716315e+01  2.23e-11 5.33e-15  3.05e-07     5s
  14   1.00213029e+02  1.00094211e+02  5.67e-11 5.33e-15  9.92e-08     5s
  15   1.00176366e+02  1.00139113e+02  1.69e-10 5.33e-15  3.11e-08     5s
  16   1.00163724e+02  1.00154971e+02  2.25e-10 3.55e-15  7.31e-09     5s
  17   1.00162188e+02  1.00160145e+02  2.16e-10 5.33e-15  1.71e-09     6s
  18   1.00162130e+02  1.00162118e+02  3.69e-10 5.33e-15  1.02e-11     6s
  19   1.00162125e+02  1.00162125e+02  5.43e-11 5.33e-15  5.10e-17     6s

Barrier solved model in 19 iterations and 5.94 seconds (5.64 work units)
Optimal objective 1.00162125e+02

Crossover log...

  103087 DPushes remaining with DInf 0.0000000e+00                 6s
       0 DPushes remaining with DInf 0.0000000e+00                 7s

   11686 PPushes remaining with PInf 0.0000000e+00                 7s
       0 PPushes remaining with PInf 0.0000000e+00                 8s

  Push phase complete: Pinf 0.0000000e+00, Dinf 8.8592057e-14      8s

Iteration    Objective       Primal Inf.    Dual Inf.      Time
   17412    1.0016213e+02   0.000000e+00   0.000000e+00     12s

Solved in 17412 iterations and 12.32 seconds (10.36 work units)
Optimal objective  1.001621254e+02

Gurobi 9.5.0 (linux64) logging started Wed Oct 11 15:44:51 2023

Set parameter LogFile to value "/lustre1/scratch/348/vsc34888/JointResearch/05.Models/06.Benchmarking/A.The_full_year_MILP/9n/openStarNet_9n.log"
Set parameter Method to value 2
Set parameter MIPFocus to value 1
Set parameter Presolve to value 2
Set parameter RINS to value 100
Set parameter MIPGap to value 0.01
Set parameter Threads to value 36
Set parameter TimeLimit to value 604800
Set parameter IterationLimit to value 760000000
Gurobi Optimizer version 9.5.0 build v9.5.0rc5 (linux64)
Thread count: 36 physical cores, 36 logical processors, using up to 36 threads
Optimize a model with 2288835 rows, 1210279 columns and 7094266 nonzeros
Model fingerprint: 0xea78b616
Variable types: 1210243 continuous, 36 integer (36 binary)
Coefficient statistics:
  Matrix range     [7e-04, 7e+01]
  Objective range  [1e+00, 1e+00]
  Bounds range     [4e-04, 2e+00]
  RHS range        [4e-04, 1e+00]
Presolve removed 742563 rows and 375652 columns (presolve time = 5s) ...
Presolve removed 742563 rows and 375652 columns (presolve time = 10s) ...
Presolve removed 742563 rows and 375652 columns (presolve time = 15s) ...
Presolve removed 742563 rows and 375652 columns
Presolve time: 15.90s
Presolved: 1546272 rows, 834627 columns, 5473407 nonzeros
Variable types: 834591 continuous, 36 integer (36 binary)
Root relaxation presolved: 1546272 rows, 834627 columns, 5473407 nonzeros

Root barrier log...

Ordering time: 0.52s

Barrier statistics:
 Dense cols : 36
 AA' NZ     : 2.081e+07
 Factor NZ  : 4.702e+07 (roughly 1.3 GB of memory)
 Factor Ops : 2.386e+09 (less than 1 second per iteration)
 Threads    : 35

                  Objective                Residual
Iter       Primal          Dual         Primal    Dual     Compl     Time
   0   3.92213297e+05 -1.99809273e+07  6.62e+00 5.96e-01  2.05e+01    33s
   1   6.05491210e+04 -5.88935790e+06  7.75e-01 1.39e-08  2.74e+00    34s
   2   1.34100757e+04 -9.30064502e+05  9.43e-03 7.37e-09  3.14e-01    34s
   3   3.19647405e+03 -2.20151914e+04  1.05e-05 1.55e-10  8.32e-03    36s
   4   9.14634654e+02 -3.52107464e+03  6.47e-09 2.22e-11  1.46e-03    37s
   5   6.29706331e+02 -1.63624592e+03  2.94e-09 9.88e-12  7.47e-04    37s
   6   4.40229490e+02 -9.64662178e+02  1.63e-09 5.44e-12  4.63e-04    38s
   7   2.98531784e+02 -5.09388803e+02  8.37e-10 2.89e-12  2.66e-04    39s
   8   1.66682907e+02 -1.94358126e+02  2.50e-10 1.40e-12  1.19e-04    40s
   9   1.43894240e+02 -4.83873800e+01  1.76e-10 1.04e-12  6.34e-05    40s
  10   1.35342248e+02 -2.32997549e+01  1.50e-10 8.81e-13  5.23e-05    41s
  11   1.14964409e+02  5.68304014e+00  8.64e-11 9.24e-13  3.60e-05    42s
  12   1.02245901e+02  2.20088337e+01  4.94e-11 1.14e-12  2.65e-05    43s
  13   9.82632272e+01  3.51768753e+01  3.78e-11 4.76e-13  2.08e-05    44s
  14   9.72561709e+01  3.66863657e+01  3.51e-11 7.32e-13  2.00e-05    45s
  15   9.36999714e+01  4.28619935e+01  2.47e-11 5.47e-13  1.68e-05    46s
  16   9.27916708e+01  5.03692478e+01  2.20e-11 3.13e-13  1.40e-05    47s
  17   9.17286188e+01  5.52726429e+01  3.11e-11 4.05e-13  1.20e-05    49s
  18   9.11979326e+01  5.58309681e+01  1.02e-10 2.77e-13  1.17e-05    50s
  19   8.98617808e+01  6.16349334e+01  2.25e-07 3.69e-13  9.31e-06    51s
  20   8.93310707e+01  6.42640826e+01  2.03e-07 5.19e-13  8.27e-06    52s
  21   8.83929751e+01  6.78353258e+01  1.71e-07 3.34e-13  6.78e-06    53s
  22   8.78107399e+01  6.99719053e+01  1.44e-07 3.52e-13  5.88e-06    54s
  23   8.73411711e+01  7.16664189e+01  1.22e-07 2.63e-13  5.17e-06    56s
  24   8.69546496e+01  7.37785691e+01  1.05e-07 7.25e-13  4.35e-06    57s
  25   8.64672358e+01  7.53965285e+01  8.28e-08 5.12e-13  3.65e-06    58s
  26   8.62650984e+01  7.60104616e+01  7.44e-08 3.06e-13  3.38e-06    59s
  27   8.60500933e+01  7.69036835e+01  6.49e-08 6.54e-13  3.02e-06    60s
  28   8.58364032e+01  7.80612303e+01  5.57e-08 3.80e-13  2.56e-06    62s
  29   8.56260068e+01  7.84466783e+01  4.73e-08 6.04e-13  2.37e-06    63s
  30   8.55614373e+01  7.86735912e+01  4.45e-08 3.62e-13  2.27e-06    64s
  31   8.53929028e+01  7.96417270e+01  3.72e-08 5.40e-13  1.90e-06    65s
  32   8.52502919e+01  8.00152935e+01  3.18e-08 4.19e-13  1.73e-06    66s
  33   8.51706951e+01  8.02505593e+01  2.87e-08 3.48e-13  1.62e-06    67s
  34   8.51012331e+01  8.05460794e+01  2.60e-08 3.20e-13  1.50e-06    68s
  35   8.50235144e+01  8.09024921e+01  2.30e-08 6.32e-13  1.36e-06    69s
  36   8.49426209e+01  8.11115834e+01  1.99e-08 6.04e-13  1.26e-06    71s
  37   8.49151893e+01  8.13608915e+01  1.89e-08 2.42e-13  1.17e-06    72s
  38   8.48436791e+01  8.16180791e+01  1.62e-08 2.24e-13  1.06e-06    73s
  39   8.48291341e+01  8.17096321e+01  1.56e-08 2.63e-13  1.03e-06    74s
  40   8.47845481e+01  8.19612955e+01  2.51e-08 4.62e-13  9.31e-07    75s
  41   8.47511116e+01  8.20655772e+01  2.43e-08 3.48e-13  8.86e-07    76s
  42   8.47156156e+01  8.21564077e+01  2.32e-08 2.56e-13  8.44e-07    77s
  43   8.46984948e+01  8.22416212e+01  2.30e-08 3.02e-13  8.10e-07    79s
  44   8.46787685e+01  8.23434825e+01  2.07e-08 3.09e-13  7.70e-07    80s
  45   8.46314859e+01  8.27632595e+01  1.84e-08 3.55e-13  6.16e-07    81s
  46   8.46085241e+01  8.28408730e+01  1.86e-08 3.77e-13  5.83e-07    82s
  47   8.45649765e+01  8.31073261e+01  1.63e-08 3.56e-12  4.81e-07    84s
  48   8.45571762e+01  8.34822824e+01  1.56e-08 2.98e-12  3.55e-07    85s
  49   8.45150476e+01  8.35988091e+01  1.21e-08 3.27e-12  3.02e-07    86s
  50   8.45014273e+01  8.36227217e+01  1.14e-08 4.06e-12  2.90e-07    88s
  51   8.44971861e+01  8.36908558e+01  1.11e-08 3.55e-12  2.66e-07    89s
  52   8.44861952e+01  8.38325579e+01  1.13e-08 1.03e-12  2.16e-07    91s
  53   8.44816753e+01  8.38681817e+01  1.13e-08 1.08e-12  2.02e-07    92s
  54   8.44757497e+01  8.39069983e+01  1.03e-08 1.37e-12  1.88e-07    94s
  55   8.44671188e+01  8.39491395e+01  9.14e-09 3.57e-12  1.71e-07    95s
  56   8.44461668e+01  8.41361642e+01  7.66e-09 6.10e-12  1.02e-07    97s
  57   8.44434592e+01  8.41905690e+01  7.16e-09 4.95e-12  8.34e-08    98s
  58   8.44356567e+01  8.42024772e+01  5.55e-09 4.89e-12  7.69e-08   100s
  59   8.44343645e+01  8.42246809e+01  5.28e-09 3.62e-12  6.92e-08   102s
  60   8.44241219e+01  8.42667343e+01  3.17e-09 3.48e-12  5.19e-08   104s
  61   8.44195298e+01  8.43234693e+01  2.33e-09 1.34e-12  3.17e-08   105s
  62   8.44154673e+01  8.43792614e+01  1.16e-09 6.00e-11  1.19e-08   106s
  63   8.44148610e+01  8.43814766e+01  1.05e-09 5.56e-11  1.10e-08   108s
  64   8.44123751e+01  8.43898439e+01  6.27e-10 3.84e-11  7.43e-09   110s
  65   8.44113233e+01  8.43982827e+01  4.41e-10 2.14e-11  4.30e-09   111s
  66   8.44089699e+01  8.44082237e+01  4.85e-09 1.08e-11  2.46e-10   111s
  67   8.44087039e+01  8.44086488e+01  9.80e-10 1.93e-12  1.82e-11   112s
  68   8.44086913e+01  8.44086913e+01  3.68e-11 1.66e-11  2.28e-15   113s

Barrier solved model in 68 iterations and 112.93 seconds (82.21 work units)
Optimal objective 8.44086913e+01


Root crossover log...

  364167 DPushes remaining with DInf 0.0000000e+00               114s
       0 DPushes remaining with DInf 0.0000000e+00               115s

   65220 PPushes remaining with PInf 0.0000000e+00               115s
       0 PPushes remaining with PInf 0.0000000e+00               119s

  Push phase complete: Pinf 0.0000000e+00, Dinf 1.7362669e-11    119s


Root simplex log...

Iteration    Objective       Primal Inf.    Dual Inf.      Time
   73672    8.4408691e+01   0.000000e+00   0.000000e+00    120s
   73672    8.4408691e+01   0.000000e+00   0.000000e+00    121s

Root relaxation: objective 8.440869e+01, 73672 iterations, 97.16 seconds (75.07 work units)

    Nodes    |    Current Node    |     Objective Bounds      |     Work
 Expl Unexpl |  Obj  Depth IntInf | Incumbent    BestBd   Gap | It/Node Time

     0     0   84.40869    0    6          -   84.40869      -     -  122s
H    0     0                     915.4684057   84.40869  90.8%     -  133s
     0     0   91.86551    0    1  915.46841   91.86551  90.0%     -  335s
H    0     0                      94.1188795   91.86551  2.39%     -  346s
     0     0   91.93122    0    1   94.11888   91.93122  2.32%     -  373s
     0     0   91.93122    0    1   94.11888   91.93122  2.32%     -  378s
     0     0   92.52013    0    3   94.11888   92.52013  1.70%     -  515s
     0     0   92.52013    0    3   94.11888   92.52013  1.70%     -  534s
     0     0   92.52013    0    1   94.11888   92.52013  1.70%     -  599s
H    0     0                      92.6657983   92.52013  0.16%     -  604s

Cutting planes:
  Gomory: 1
  MIR: 7242
  Relax-and-lift: 47

Explored 1 nodes (282589 simplex iterations) in 604.26 seconds (623.81 work units)
Thread count was 36 (of 36 available processors)

Solution count 4: 92.6658 94.1189 915.468 926.493 

Optimal solution found (tolerance 1.00e-02)
Best objective 9.266579832487e+01, best bound 9.252013428427e+01, gap 0.1572%

Gurobi 9.5.0 (linux64) logging started Wed Oct 11 15:56:12 2023

Set parameter LogFile to value "/lustre1/scratch/348/vsc34888/JointResearch/05.Models/06.Benchmarking/A.The_full_year_MILP/9n/openStarNet_9n.log"
Set parameter Method to value 2
Set parameter MIPFocus to value 1
Set parameter Presolve to value 2
Set parameter RINS to value 100
Set parameter MIPGap to value 0.01
Set parameter Threads to value 36
Set parameter TimeLimit to value 604800
Set parameter IterationLimit to value 760000000
No parameters matching 'relax_integrality' found
Gurobi Optimizer version 9.5.0 build v9.5.0rc5 (linux64)
Thread count: 36 physical cores, 36 logical processors, using up to 36 threads
Optimize a model with 2288835 rows, 1210243 columns and 5836246 nonzeros
Model fingerprint: 0x83d032ee
Coefficient statistics:
  Matrix range     [7e-04, 7e+01]
  Objective range  [1e+00, 1e+00]
  Bounds range     [4e-04, 2e+00]
  RHS range        [4e-04, 2e+01]
Presolve removed 1974339 rows and 663940 columns
Presolve time: 2.52s
Presolved: 314496 rows, 546303 columns, 1201503 nonzeros

Ordering time: 0.04s

Barrier statistics:
 AA' NZ     : 8.823e+05
 Factor NZ  : 3.232e+06 (roughly 400 MB of memory)
 Factor Ops : 3.982e+07 (less than 1 second per iteration)
 Threads    : 36

                  Objective                Residual
Iter       Primal          Dual         Primal    Dual     Compl     Time
   0   4.29966197e+05 -5.59502904e+06  4.33e+00 2.66e-15  1.15e+01     3s
   1   6.12318856e+04 -1.14179546e+06  5.09e-01 1.07e-14  1.44e+00     3s
   2   8.97695898e+03 -1.79079546e+05  3.35e-02 1.01e-14  1.67e-01     3s
   3   1.46721295e+03 -3.72608220e+03  1.10e-05 8.88e-15  4.34e-03     3s
   4   6.71803770e+02 -8.51408217e+02  1.12e-08 7.11e-15  1.27e-03     4s
   5   4.42100323e+02 -3.58107368e+02  6.27e-09 5.33e-15  6.68e-04     4s
   6   2.96653280e+02 -1.71621341e+02  3.49e-09 5.33e-15  3.91e-04     4s
   7   2.07733620e+02 -5.87545067e+01  1.89e-09 3.55e-15  2.23e-04     4s
   8   1.55224370e+02  9.86313026e+00  9.87e-10 3.55e-15  1.21e-04     4s
   9   1.16865199e+02  6.23458409e+01  3.58e-10 5.33e-15  4.55e-05     4s
  10   1.03566516e+02  7.99326641e+01  1.55e-10 5.33e-15  1.97e-05     4s
  11   9.53755243e+01  8.78338393e+01  3.64e-11 5.33e-15  6.30e-06     4s
  12   9.33043743e+01  9.18669892e+01  7.60e-12 5.33e-15  1.20e-06     5s
  13   9.28657332e+01  9.24577003e+01  5.03e-11 5.33e-15  3.41e-07     5s
  14   9.27269562e+01  9.25880001e+01  1.48e-10 3.55e-15  1.16e-07     5s
  15   9.26840958e+01  9.26391812e+01  2.05e-10 3.55e-15  3.75e-08     5s
  16   9.26690744e+01  9.26573332e+01  2.73e-10 3.55e-15  9.81e-09     5s
  17   9.26660613e+01  9.26636872e+01  3.16e-10 3.55e-15  1.98e-09     5s
  18   9.26658019e+01  9.26657918e+01  4.45e-10 5.33e-15  8.38e-12     6s
  19   9.26657983e+01  9.26657983e+01  7.47e-11 5.33e-15  9.86e-18     6s

Barrier solved model in 19 iterations and 5.73 seconds (5.58 work units)
Optimal objective 9.26657983e+01

Crossover log...

  103087 DPushes remaining with DInf 0.0000000e+00                 6s
       0 DPushes remaining with DInf 0.0000000e+00                 6s

   15323 PPushes remaining with PInf 0.0000000e+00                 6s
       0 PPushes remaining with PInf 0.0000000e+00                11s

  Push phase complete: Pinf 0.0000000e+00, Dinf 8.7032269e-14     11s

Iteration    Objective       Primal Inf.    Dual Inf.      Time
   21049    9.2665798e+01   0.000000e+00   0.000000e+00     14s

Solved in 21049 iterations and 14.21 seconds (13.37 work units)
Optimal objective  9.266579832e+01
